# Solution for model problem_
# Objective value = 4.6379591140010278e+04
x(0_0) 1
x(0_1) 0
x(0_2) 0
x(0_3) 0
x(0_4) 0
x(0_5) 0
x(0_6) 0
x(0_7) 0
x(0_8) 0
x(0_9) 0
x(0_10) 0
x(0_11) 0
x(0_12) 0
x(0_13) 0
x(0_14) 0
x(0_15) 0
x(0_16) 0
x(1_17) 0
x(1_18) 0
x(1_19) 0
x(1_20) 0
x(1_21) 0
x(1_22) 0
x(1_23) 0
x(1_24) 1
x(1_25) 0
x(1_26) 0
x(1_27) 0
x(2_28) 0
x(2_29) 0
x(2_30) 0
x(2_31) 0
x(2_32) 0
x(2_33) 1
x(2_34) 0
x(2_35) 0
x(2_36) 0
x(2_37) 0
x(2_38) 0
x(2_39) 0
x(2_40) 0
x(2_41) 0
x(2_42) 0
x(2_43) 0
x(2_44) 0
x(2_45) 0
x(2_46) 0
x(3_47) 0
x(3_48) 0
x(3_49) 0
x(3_50) 0
x(3_51) 0
x(3_52) 0
x(3_53) 1
x(3_54) 0
x(3_55) 0
x(3_56) 0
x(3_57) 0
x(3_58) 0
x(3_59) 0
x(3_60) 0
x(3_61) 0
x(4_62) 0
x(4_63) 0
x(4_64) 0
x(4_65) 0
x(4_66) 0
x(4_67) 0
x(4_68) 0
x(4_69) 1
x(4_70) 0
x(4_71) 0
x(4_72) 0
x(5_73) 0
x(5_74) 0
x(5_75) 0
x(5_76) 1
x(5_77) 0
x(5_78) 0
x(5_79) 0
x(5_80) 0
x(5_81) 0
x(5_82) 0
x(5_83) 0
x(6_84) 0
x(6_85) 0
x(6_86) 0
x(6_87) 0
x(6_88) 0
x(6_89) 0
x(6_90) 0
x(6_91) 0
x(6_92) 0
x(6_93) 0
x(6_94) 0
x(6_95) 0
x(6_96) 1
x(6_97) 0
x(7_98) 0
x(7_99) 0
x(7_100) 1
x(7_101) 0
x(7_102) 0
x(7_103) 0
x(7_104) 0
x(7_105) 0
x(7_106) 0
x(7_107) 0
x(7_108) 0
x(8_109) 0
x(8_110) 0
x(8_111) 0
x(8_112) 0
x(8_113) 0
x(8_114) 0
x(8_115) 0
x(8_116) 0
x(8_117) 0
x(8_118) 0
x(8_119) 0
x(8_120) 0
x(8_121) 0
x(8_122) 1
x(8_123) 0
x(8_124) 0
x(8_125) 0
x(9_126) 0
x(9_127) 0
x(9_128) 0
x(9_129) 0
x(9_130) 1
x(9_131) 0
x(9_132) 0
x(9_133) 0
x(9_134) 0
x(9_135) 0
x(10_136) 0
x(10_137) 0
x(10_138) 0
x(10_139) 0
x(10_140) 0
x(10_141) 1
x(10_142) 0
x(10_143) 0
x(10_144) 0
x(10_145) 0
x(11_146) 0
x(11_147) 1
x(11_148) 0
x(11_149) 0
x(11_150) 0
x(11_151) 0
x(11_152) 0
x(11_153) 0
x(11_154) 0
x(11_155) 0
x(12_156) 0
x(12_157) 0
x(12_158) 0
x(12_159) 0
x(12_160) 0
x(12_161) 1
x(12_162) 0
x(12_163) 0
x(12_164) 0
x(12_165) 0
x(12_166) 0
x(12_167) 0
x(12_168) 0
x(12_169) 0
x(12_170) 0
x(12_171) 0
x(12_172) 0
x(13_173) 0
x(13_174) 0
x(13_175) 0
x(13_176) 0
x(13_177) 0
x(13_178) 0
x(13_179) 1
x(13_180) 0
x(13_181) 0
x(13_182) 0
x(14_183) 0
x(14_184) 1
x(14_185) 0
x(14_186) 0
x(14_187) 0
x(14_188) 0
x(14_189) 0
x(14_190) 0
x(14_191) 0
x(14_192) 0
x(14_193) 0
x(14_194) 0
x(14_195) 0
x(15_196) 0
x(15_197) 0
x(15_198) 1
x(15_199) 0
x(15_200) 0
x(15_201) 0
x(15_202) 0
x(15_203) 0
x(15_204) 0
x(15_205) 0
x(15_206) 0
x(15_207) 0
x(16_208) 0
x(16_209) 0
x(16_210) 1
x(16_211) 0
x(16_212) 0
x(16_213) 0
x(16_214) 0
x(16_215) 0
x(16_216) 0
x(16_217) 0
x(16_218) 0
x(16_219) 0
x(16_220) 0
x(16_221) 0
x(16_222) 0
x(16_223) 0
x(16_224) 0
x(16_225) 0
x(17_226) 0
x(17_227) 0
x(17_228) 0
x(17_229) 0
x(17_230) 0
x(17_231) 0
x(17_232) 1
x(17_233) 0
x(17_234) 0
x(17_235) 0
x(17_236) 0
x(17_237) 0
x(17_238) 0
x(17_239) 0
x(17_240) 0
x(18_241) 1
x(18_242) 0
x(18_243) 0
x(18_244) 0
x(18_245) 0
x(18_246) 0
x(18_247) 0
x(18_248) 0
x(18_249) 0
x(18_250) 0
x(19_251) 1
x(19_252) 0
x(19_253) 0
x(19_254) 0
x(19_255) 0
x(19_256) 0
x(19_257) 0
x(19_258) 0
x(19_259) 0
x(19_260) 0
x(19_261) 0
x(19_262) 0
x(19_263) 0
x(19_264) 0
x(19_265) 0
x(19_266) 0
x(19_267) 0
x(19_268) 0
x(19_269) 0
x(19_270) 0
x(20_271) 0
x(20_272) 0
x(20_273) 0
x(20_274) 0
x(20_275) 1
x(20_276) 0
x(20_277) 0
x(20_278) 0
x(20_279) 0
x(20_280) 0
x(20_281) 0
x(20_282) 0
x(20_283) 0
x(20_284) 0
x(21_285) 0
x(21_286) 0
x(21_287) 0
x(21_288) 0
x(21_289) 0
x(21_290) 0
x(21_291) 0
x(21_292) 0
x(21_293) 0
x(21_294) 1
x(21_295) 0
x(21_296) 0
x(21_297) 0
x(22_298) 1
x(22_299) 0
x(22_300) 0
x(22_301) 0
x(22_302) 0
x(22_303) 0
x(22_304) 0
x(22_305) 0
x(22_306) 0
x(22_307) 0
x(22_308) 0
x(23_309) 0
x(23_310) 0
x(23_311) 0
x(23_312) 0
x(23_313) 0
x(23_314) 1
x(23_315) 0
x(23_316) 0
x(23_317) 0
x(23_318) 0
x(23_319) 0
x(23_320) 0
x(23_321) 0
x(23_322) 0
x(23_323) 0
x(23_324) 0
x(23_325) 0
x_1_0 0
s_1_0 6.8803584203124046e-01
z_1_0 1
x_1_1 92.7942385673523
s_1_1 0
z_1_1 0
x_1_2 0
s_1_2 4.9727882118895650e-01
z_1_2 1
x_1_3 0
s_1_3 9.3885644059628248e-01
z_1_3 1
x_1_4 9.0302694082260132e+01
s_1_4 0
z_1_4 0
x_1_5 0
s_1_5 8.9636728004552424e-01
z_1_5 1
x_1_6 92.669748544693
s_1_6 0
z_1_6 0
x_1_7 91.2290313243866
s_1_7 0
z_1_7 0
x_1_8 0
s_1_8 3.2375396881252527e-01
z_1_8 1
x_1_9 9.3473799467086792e+01
s_1_9 0
z_1_9 0
x_1_10 9.1621701955795288e+01
s_1_10 0
z_1_10 0
x_1_11 9.3395170927047729e+01
s_1_11 0
z_1_11 0
x_1_12 0
s_1_12 9.1707754007074982e-01
z_1_12 1
x_1_13 9.3424902677536011e+01
s_1_13 0
z_1_13 0
x_1_14 9.2502205610275269e+01
s_1_14 0
z_1_14 0
x_1_15 0
s_1_15 5.6061960558872670e-01
z_1_15 1
x_1_16 9.3196521520614624e+01
s_1_16 0
z_1_16 0
x_1_17 9.2227155447006226e+01
s_1_17 0
z_1_17 0
x_1_18 0
s_1_18 6.3466291222721338e-01
z_1_18 1
x_1_19 9.2745490789413452e+01
s_1_19 0
z_1_19 0
x_1_20 0
s_1_20 5.0456785876303911e-01
z_1_20 1
x_1_21 0
s_1_21 9.1136119607836008e-01
z_1_21 1
x_1_22 0
s_1_22 9.8451552540063858e-01
z_1_22 1
x_1_23 92.7130675315857
s_1_23 0
z_1_23 0
x_1_24 9.1716796636581421e+01
s_1_24 0
z_1_24 0
x_1_25 9.3389566421508789e+01
s_1_25 0
z_1_25 0
x_1_26 9.2836346149444580e+01
s_1_26 0
z_1_26 0
x_1_27 0
s_1_27 5.7630137843079865e-01
z_1_27 1
x_1_28 9.2330335855484009e+01
s_1_28 0
z_1_28 0
x_1_29 9.2773680210113525e+01
s_1_29 0
z_1_29 0
x_1_30 9.3464452981948853e+01
s_1_30 0
z_1_30 0
x_1_31 9.3415713071823120e+01
s_1_31 0
z_1_31 0
x_1_32 92.1940758228302
s_1_32 0
z_1_32 0
x_1_33 0
s_1_33 3.6725380027201027e-01
z_1_33 1
x_1_34 92.5575635433197
s_1_34 0
z_1_34 0
x_1_35 0
s_1_35 8.7991496687754989e-01
z_1_35 1
x_1_36 92.9549822807312
s_1_36 0
z_1_36 0
x_1_37 0
s_1_37 5.1439545160974376e-01
z_1_37 1
x_1_38 91.7096951007843
s_1_38 0
z_1_38 0
x_1_39 9.2997454166412354e+01
s_1_39 0
z_1_39 0
x_1_40 9.2423238039016724e+01
s_1_40 0
z_1_40 0
x_1_41 0
s_1_41 1.0314838662743568e+00
z_1_41 1
x_1_42 9.1793871402740479e+01
s_1_42 0
z_1_42 0
x_1_43 9.3041269302368164e+01
s_1_43 0
z_1_43 0
x_1_44 9.3436627626419067e+01
s_1_44 0
z_1_44 0
x_1_45 9.2505044698715210e+01
s_1_45 0
z_1_45 0
x_1_46 0
s_1_46 6.1105127821792848e-01
z_1_46 1
x_1_47 0
s_1_47 2.8621755866333842e-01
z_1_47 1
x_1_48 9.1945670843124390e+01
s_1_48 0
z_1_48 0
x_1_49 0
s_1_49 0.755343654891476
z_1_49 1
x_1_50 0
s_1_50 6.7265911912545562e-01
z_1_50 1
x_1_51 9.1249630212783813e+01
s_1_51 0
z_1_51 0
x_1_52 9.2400856256484985e+01
s_1_52 0
z_1_52 0
x_1_53 9.3041393995285034e+01
s_1_53 0
z_1_53 0
x_1_54 9.3196167707443237e+01
s_1_54 0
z_1_54 0
x_1_55 0
s_1_55 5.3858157551439945e-01
z_1_55 1
x_1_56 9.2097076177597046e+01
s_1_56 0
z_1_56 0
x_1_57 9.2107587814331055e+01
s_1_57 0
z_1_57 0
x_1_58 0
s_1_58 0.879252583021298
z_1_58 1
x_1_59 0
s_1_59 1.1389883034862578e+00
z_1_59 1
x_1_60 0
s_1_60 1.2682572256890126e+00
z_1_60 1
x_1_61 9.1776830673217773e+01
s_1_61 0
z_1_61 0
x_1_62 0
s_1_62 7.2505085088778287e-01
z_1_62 1
x_1_63 9.1923567771911621e+01
s_1_63 0
z_1_63 0
x_1_64 9.2097686529159546e+01
s_1_64 0
z_1_64 0
x_1_65 9.3683160543441772e+01
s_1_65 0
z_1_65 0
x_1_66 0
s_1_66 8.2137421413790435e-01
z_1_66 1
x_1_67 0
s_1_67 0.714412315748632
z_1_67 1
x_1_68 0
s_1_68 0.999147656140849
z_1_68 1
x_1_69 0
s_1_69 7.7867764810798690e-01
z_1_69 1
x_1_70 0
s_1_70 8.4094106851262040e-01
z_1_70 1
x_1_71 9.1092556238174438e+01
s_1_71 0
z_1_71 0
x_1_72 9.2330990552902222e+01
s_1_72 0
z_1_72 0
x_1_73 9.3025132179260254e+01
s_1_73 0
z_1_73 0
x_1_74 0
s_1_74 9.0383552364073694e-01
z_1_74 1
x_1_75 0
s_1_75 6.8497860780917108e-01
z_1_75 1
x_1_76 9.2626408338546753e+01
s_1_76 0
z_1_76 0
x_1_77 0
s_1_77 6.6084074648097157e-01
z_1_77 1
x_1_78 0
s_1_78 4.8054493544623256e-01
z_1_78 1
x_1_79 0
s_1_79 5.0930185383185744e-01
z_1_79 1
x_1_80 9.3029093503952026e+01
s_1_80 0
z_1_80 0
x_1_81 9.1962563514709473e+01
s_1_81 0
z_1_81 0
x_1_82 9.2152411222457886e+01
s_1_82 0
z_1_82 0
x_1_83 0
s_1_83 5.6469680799636990e-01
z_1_83 1
x_1_84 9.2356370687484741e+01
s_1_84 0
z_1_84 0
x_1_85 92.9806113243103
s_1_85 0
z_1_85 0
x_1_86 9.2277394533157349e+01
s_1_86 0
z_1_86 0
x_1_87 0
s_1_87 6.1727757682092488e-01
z_1_87 1
x_1_88 0
s_1_88 7.5392760895192623e-01
z_1_88 1
x_1_89 0
s_1_89 1.2434235792607069e+00
z_1_89 1
x_1_90 0
s_1_90 1.1753149673750158e+00
z_1_90 1
x_1_91 9.2222579717636108e+01
s_1_91 0
z_1_91 0
x_1_92 9.3218047857284546e+01
s_1_92 0
z_1_92 0
x_1_93 9.1870097875595093e+01
s_1_93 0
z_1_93 0
x_1_94 0
s_1_94 0.570511007681489
z_1_94 1
x_1_95 9.2502522945404053e+01
s_1_95 0
z_1_95 0
x_1_96 9.1890219211578369e+01
s_1_96 0
z_1_96 0
x_1_97 9.2551805257797241e+01
s_1_97 0
z_1_97 0
x_1_98 9.2643562078475952e+01
s_1_98 0
z_1_98 0
x_1_99 9.3161479473114014e+01
s_1_99 0
z_1_99 0
x_1_100 9.1700198173522949e+01
s_1_100 0
z_1_100 0
x_1_101 9.2724059104919434e+01
s_1_101 0
z_1_101 0
x_1_102 9.2492792606353760e+01
s_1_102 0
z_1_102 0
x_1_103 9.2226525306701660e+01
s_1_103 0
z_1_103 0
x_1_104 92.9772310256958
s_1_104 0
z_1_104 0
x_1_105 0
s_1_105 9.6268859831616282e-01
z_1_105 1
x_1_106 0
s_1_106 1.0902395248413086e+00
z_1_106 1
x_1_107 89.2590024471283
s_1_107 0
z_1_107 0
x_1_108 9.3088616609573364e+01
s_1_108 0
z_1_108 0
x_1_109 0
s_1_109 5.1045538345351815e-01
z_1_109 1
x_1_110 0
s_1_110 7.8987286798655987e-01
z_1_110 1
x_1_111 9.2125714540481567e+01
s_1_111 0
z_1_111 0
x_1_112 9.2189840316772461e+01
s_1_112 0
z_1_112 0
x_1_113 9.2697211742401123e+01
s_1_113 0
z_1_113 0
x_1_114 9.2652808189392090e+01
s_1_114 0
z_1_114 0
x_1_115 9.1721153020858765e+01
s_1_115 0
z_1_115 0
x_1_116 9.0182525396347046e+01
s_1_116 0
z_1_116 0
x_1_117 9.2566148281097412e+01
s_1_117 0
z_1_117 0
x_1_118 8.9901894807815552e+01
s_1_118 0
z_1_118 0
x_1_119 9.3165492296218872e+01
s_1_119 0
z_1_119 0
x_1_120 9.0665857315063477e+01
s_1_120 0
z_1_120 0
x_1_121 9.3243266344070435e+01
s_1_121 0
z_1_121 0
x_1_122 9.1598858833312988e+01
s_1_122 0
z_1_122 0
x_1_123 92.5713722705841
s_1_123 0
z_1_123 0
x_1_124 0
s_1_124 8.3033425966277719e-01
z_1_124 1
x_1_125 9.1952713489532471e+01
s_1_125 0
z_1_125 0
x_1_126 0
s_1_126 9.5973756932653487e-01
z_1_126 1
x_1_127 9.3072729349136353e+01
s_1_127 0
z_1_127 0
x_1_128 9.2994308471679688e+01
s_1_128 0
z_1_128 0
x_1_129 9.2376032829284668e+01
s_1_129 0
z_1_129 0
x_1_130 92.4434757232666
s_1_130 0
z_1_130 0
x_1_131 0
s_1_131 6.8837338825687766e-01
z_1_131 1
x_1_132 0
s_1_132 7.0181261253310367e-01
z_1_132 1
x_1_133 90.8250949382782
s_1_133 0
z_1_133 0
x_1_134 9.3674741744995117e+01
s_1_134 0
z_1_134 0
x_1_135 0
s_1_135 0.63289595535025
z_1_135 1
x_1_136 0
s_1_136 7.5182278314605355e-01
z_1_136 1
x_1_137 0
s_1_137 9.0791574027389288e-01
z_1_137 1
x_1_138 9.3277244091033936e+01
s_1_138 0
z_1_138 0
x_1_139 9.2631646156311035e+01
s_1_139 0
z_1_139 0
x_1_140 0
s_1_140 9.9906027782708406e-01
z_1_140 1
x_1_141 0
s_1_141 7.0042011328041553e-01
z_1_141 1
x_1_142 9.2679116964340210e+01
s_1_142 0
z_1_142 0
x_1_143 9.2806495428085327e+01
s_1_143 0
z_1_143 0
x_1_144 0
s_1_144 4.1384595504496247e-01
z_1_144 1
x_1_145 9.3525858640670776e+01
s_1_145 0
z_1_145 0
x_1_146 0
s_1_146 6.7842365195974708e-01
z_1_146 1
x_1_147 92.4817955493927
s_1_147 0
z_1_147 0
x_1_148 0
s_1_148 0.549712464096956
z_1_148 1
x_1_149 92.350417137146
s_1_149 0
z_1_149 0
x_1_150 0
s_1_150 9.4197881780564785e-01
z_1_150 1
x_1_151 9.2451446056365967e+01
s_1_151 0
z_1_151 0
x_1_152 9.3162685155868530e+01
s_1_152 0
z_1_152 0
x_1_153 9.1755889654159546e+01
s_1_153 0
z_1_153 0
x_1_154 9.2654660701751709e+01
s_1_154 0
z_1_154 0
x_1_155 9.2922485828399658e+01
s_1_155 0
z_1_155 0
x_1_156 0
s_1_156 7.8556376381311566e-01
z_1_156 1
x_1_157 9.3444595575332642e+01
s_1_157 0
z_1_157 0
x_1_158 0
s_1_158 2.2796557284891605e-01
z_1_158 1
x_1_159 0
s_1_159 8.2471948629245162e-01
z_1_159 1
x_2_0 4.5847441140010276e+04
